NAME : portgen-51-395
COMMENT : portgen N=51, seed=395
TYPE : TSP
DIMENSION : 51
EDGE_WEIGHT_TYPE : EUC_2D
NODE_COORD_SECTION
1 264131 251190
2 715022 771153
3 283115 967517
4 250482 801318
5 404330 404803
6 896973 405396
7 7304 469550
8 931845 860303
9 383677 777623
10 58470 283298
11 470207 354230
12 199801 830028
13 301252 677618
14 948452 367367
15 455293 172299
16 666260 171866
17 635841 462891
18 435455 898666
19 308071 667234
20 456238 188023
21 390147 373972
22 108140 89717
23 183789 353107
24 157529 786484
25 128303 185877
26 141622 525325
27 828110 861218
28 161379 92264
29 615349 252130
30 335698 384448
31 659445 583247
32 345079 216307
33 14656 523000
34 297256 917586
35 285760 578737
36 702773 597193
37 649320 872593
38 141675 944882
39 526120 338582
40 668648 208987
41 62269 696322
42 31669 70845
43 512853 83012
44 826786 419533
45 448235 912454
46 601410 390484
47 381473 877500
48 485249 792954
49 724652 235546
50 948041 238907
51 826986 818946
